This is Ipopt version 3.14.17, running with linear solver MUMPS 5.7.3.

Number of nonzeros in equality constraint Jacobian...:      850
Number of nonzeros in inequality constraint Jacobian.:      417
Number of nonzeros in Lagrangian Hessian.............:     1309

Total number of variables............................:      355
                     variables with only lower bounds:        0
                variables with lower and upper bounds:      314
                     variables with only upper bounds:        0
Total number of equality constraints.................:      205
Total number of inequality constraints...............:      158
        inequality constraints with only lower bounds:      116
   inequality constraints with lower and upper bounds:        0
        inequality constraints with only upper bounds:       42

iter    objective    inf_pr   inf_du lg(mu)  ||d||  lg(rg) alpha_du alpha_pr  ls
   0  1.0199990e+00 2.44e+01 1.00e+00  -1.0 0.00e+00    -  0.00e+00 0.00e+00   0
   1  1.1648901e+00 2.40e+01 1.05e+00  -1.0 1.20e+00    -  1.77e-02 1.58e-02f  1
   2  1.2214400e+00 2.39e+01 1.31e+00  -1.0 8.19e+00    -  6.81e-03 6.26e-03f  1
   3  1.3307553e+00 2.36e+01 2.06e+00  -1.0 8.09e+00    -  8.98e-03 1.22e-02f  1
   4  1.4460503e+00 2.33e+01 2.78e+00  -1.0 1.08e+01    -  1.18e-02 1.30e-02f  1
   5  1.5732323e+00 2.30e+01 5.04e+01  -1.0 1.07e+01    -  3.13e-02 1.45e-02f  1
   6  1.6254721e+00 2.28e+01 1.21e+03  -1.0 9.95e+00    -  5.91e-02 6.06e-03h  1
   7  1.6261693e+00 2.28e+01 4.46e+05  -1.0 7.41e+00    -  2.88e-02 8.13e-05h  1
   8  1.6289558e+00 2.28e+01 1.56e+05  -1.0 1.65e+02    -  1.10e-04 3.19e-04h  1
   9r 1.6289558e+00 2.28e+01 1.00e+03   1.2 0.00e+00   2.0 0.00e+00 2.61e-07R  6
iter    objective    inf_pr   inf_du lg(mu)  ||d||  lg(rg) alpha_du alpha_pr  ls
  10r 2.1329572e+00 1.77e+01 9.99e+02   1.2 1.17e+04    -  8.93e-04 3.06e-04f  1
  11  2.1330782e+00 1.77e+01 6.68e+03  -1.0 2.67e+00    -  7.86e-02 1.50e-05h  1
  12  2.1332127e+00 1.77e+01 8.79e+04  -1.0 2.72e+02    -  2.16e-04 1.64e-05h  1
  13  2.1341093e+00 1.77e+01 8.50e+04  -1.0 6.29e+02    -  1.03e-04 1.09e-04h  1
  14  2.1342688e+00 1.77e+01 1.31e+06  -1.0 3.16e+01    -  2.10e-03 1.93e-05h  1
  15  2.1437178e+00 1.77e+01 2.36e+07  -1.0 3.49e+00    -  3.87e-02 1.12e-03h  1
  16  2.1869133e+00 1.77e+01 2.42e+07  -1.0 5.01e+00    -  4.34e-03 3.27e-03h  1
  17  4.3854331e+00 1.76e+01 2.23e+07  -1.0 7.48e+02    -  5.10e-05 2.91e-03h  1
  18  4.7036725e+00 1.76e+01 2.28e+07  -1.0 4.75e+03    -  7.28e-04 6.68e-05h  1
  19  7.3698984e+00 1.76e+01 2.51e+07  -1.0 4.75e+03    -  4.03e-03 5.59e-04h  1
iter    objective    inf_pr   inf_du lg(mu)  ||d||  lg(rg) alpha_du alpha_pr  ls
  20  1.5511635e+01 1.76e+01 2.41e+07  -1.0 4.75e+03    -  4.36e-05 1.53e-03h  1
  21  1.6495069e+01 1.76e+01 2.41e+07  -1.0 7.82e+03    -  1.34e-04 7.82e-05h  1
  22  1.7139896e+01 1.76e+01 2.52e+07  -1.0 7.84e+03    -  1.59e-03 5.11e-05h  1
  23  2.1455845e+01 1.75e+01 2.50e+07  -1.0 7.83e+03    -  6.35e-05 3.43e-04h  1
  24  2.1680370e+01 1.75e+01 2.55e+07  -1.0 7.83e+03    -  6.99e-04 1.78e-05h  1
  25  3.3471173e+01 1.75e+01 2.82e+07  -1.0 7.84e+03    -  4.76e-03 9.35e-04h  1
  26  6.5939086e+01 1.75e+01 2.76e+07  -1.0 7.83e+03    -  1.76e-03 2.58e-03h  1
  27  1.0919107e+02 1.74e+01 2.74e+07  -1.0 7.81e+03    -  3.30e-03 3.44e-03h  1
  28  1.1004913e+02 1.74e+01 3.53e+07  -1.0 7.78e+03    -  1.06e-02 6.82e-05h  1
  29  1.2361762e+02 1.74e+01 3.46e+07  -1.0 7.78e+03    -  1.35e-04 1.06e-03h  1
iter    objective    inf_pr   inf_du lg(mu)  ||d||  lg(rg) alpha_du alpha_pr  ls
  30  1.3121600e+02 1.74e+01 3.43e+07  -1.0 7.77e+03    -  3.17e-05 3.93e-04h  1
  31  1.6023078e+02 1.74e+01 3.70e+07  -1.0 7.77e+03    -  5.15e-03 1.48e-03h  1
  32  1.7467264e+02 1.74e+01 3.65e+07  -1.0 7.76e+03    -  5.65e-05 7.15e-04h  1
  33r 1.7467264e+02 1.74e+01 1.00e+03   1.1 0.00e+00    -  0.00e+00 2.68e-07R  6
  34r 1.7595180e+02 1.60e+01 1.02e+03   1.1 5.27e+03    -  4.21e-05 2.23e-04f  1
  35r 1.7646624e+02 1.56e+01 1.03e+03   1.1 4.49e+03    -  8.72e-05 1.01e-04f  1
  36r 1.7758876e+02 1.48e+01 1.01e+03   1.1 4.05e+03    -  5.10e-04 2.36e-04f  1
  37  1.7758696e+02 1.48e+01 6.17e+02  -1.0 3.81e+01    -  1.18e-02 2.48e-05h  1
  38r 1.7758696e+02 1.48e+01 9.99e+02   1.1 0.00e+00    -  0.00e+00 2.86e-07R  5
  39r 1.7770215e+02 1.45e+01 9.99e+02   1.1 3.97e+03    -  6.82e-05 9.38e-05f  1
iter    objective    inf_pr   inf_du lg(mu)  ||d||  lg(rg) alpha_du alpha_pr  ls
  40r 1.7795377e+02 1.40e+01 9.99e+02   1.1 4.31e+03    -  5.66e-05 2.30e-04f  1
  41r 1.7803078e+02 1.40e+01 9.99e+02   1.1 3.50e+03    -  7.41e-04 7.02e-05f  1
  42r 1.7889309e+02 1.40e+01 9.98e+02   1.1 2.51e+03    -  3.47e-04 8.12e-04f  1
  43r 1.7979507e+02 1.40e+01 9.97e+02   1.1 1.59e+03    -  1.24e-03 8.79e-04f  1
  44r 1.8357420e+02 1.39e+01 1.35e+03   1.1 8.35e+02    -  1.55e-05 3.91e-03f  1
  45r 1.8478702e+02 1.36e+01 1.54e+03   1.1 2.37e+03    -  5.02e-04 1.40e-03f  1
  46r 1.8550166e+02 1.20e+01 1.54e+03   1.1 1.19e+03   0.0 4.96e-04 9.38e-04f  1
  47  1.8582839e+02 1.20e+01 1.07e+03  -1.0 5.82e+02    -  1.26e-03 5.00e-04h  1
  48r 1.8582839e+02 1.20e+01 1.00e+03   1.0 0.00e+00    -  0.00e+00 2.74e-07R  6
  49r 1.8691615e+02 8.83e-01 1.08e+03   1.0 5.24e+03    -  2.76e-04 1.58e-03f  1
iter    objective    inf_pr   inf_du lg(mu)  ||d||  lg(rg) alpha_du alpha_pr  ls
  50  9.9407106e+01 4.21e-01 1.34e+02  -1.0 8.81e+01    -  8.11e-03 4.96e-01f  1
  51  9.9364872e+01 3.65e-01 1.80e+02  -1.0 4.48e-01   1.5 3.97e-01 1.35e-01h  1
  52  9.9141768e+01 2.55e-01 1.10e+02  -1.0 4.37e-01   1.0 6.55e-01 3.00e-01h  1
  53  5.1547204e+01 2.26e-01 9.65e+01  -1.0 2.12e+02    -  1.23e-01 1.14e-01f  1
  54  1.1127124e+01 1.57e-01 6.74e+01  -1.0 6.63e+01    -  3.03e-01 3.06e-01f  1
  55  1.0758258e+01 3.65e-01 6.33e+01  -1.0 1.27e+00   0.6 7.82e-02 5.42e-01h  1
  56  1.0579139e+01 2.70e-01 9.68e+01  -1.0 8.77e-01    -  1.14e-02 2.32e-01h  1
  57  1.0397603e+01 3.12e-01 4.27e+02  -1.0 1.02e+00    -  1.22e-01 3.62e-01h  1
  58  1.0390544e+01 2.14e-01 2.84e+02  -1.0 3.67e-01   1.9 1.37e-02 3.35e-01h  1
  59  1.0389081e+01 1.66e-01 2.31e+02  -1.0 4.91e-01   2.3 2.18e-01 1.85e-01h  1
iter    objective    inf_pr   inf_du lg(mu)  ||d||  lg(rg) alpha_du alpha_pr  ls
  60  1.0377538e+01 1.01e-01 1.71e+02  -1.0 7.36e-01   1.8 9.90e-01 5.30e-01h  1
  61  1.0345831e+01 3.99e-02 4.33e+02  -1.0 1.03e-01   1.4 1.52e-01 6.73e-01h  1
  62  1.0305002e+01 1.61e-02 5.88e+02  -1.0 1.01e-01   0.9 4.63e-01 6.43e-01h  1
  63  1.0283368e+01 5.73e-03 1.37e+03  -1.0 3.62e-01    -  9.90e-01 6.61e-01h  1
  64  1.0325431e+01 1.15e-03 1.96e+03  -1.0 1.28e+00    -  9.90e-01 6.76e-01h  1
  65  1.0392423e+01 1.24e-03 2.60e+03  -1.0 5.17e-02    -  1.00e+00 6.21e-01h  1
  66  1.0440078e+01 8.72e-04 4.66e+03  -1.0 1.94e-02    -  1.00e+00 2.97e-01h  1
  67  1.0542036e+01 5.74e-04 7.85e+03  -1.0 9.69e-02    -  1.00e+00 3.41e-01h  1
  68  1.1368576e+01 8.34e-05 2.47e+03  -1.0 5.52e-01    -  6.04e-01 9.70e-01h  1
  69  1.1441850e+01 8.18e-05 9.90e+03  -1.0 1.87e+00    -  9.99e-01 3.12e-02f  6
iter    objective    inf_pr   inf_du lg(mu)  ||d||  lg(rg) alpha_du alpha_pr  ls
  70  1.5252000e+01 2.96e-05 2.08e+03  -1.0 2.71e+00    -  7.62e-01 1.00e+00h  1
  71  1.4232310e+01 2.92e-05 1.07e+01  -1.0 1.68e+00    -  1.00e+00 1.00e+00h  1
  72  6.4120548e+00 3.04e-05 6.30e+02  -1.7 1.01e-01    -  1.00e+00 9.22e-01f  1
  73  6.3441889e+00 3.05e-05 6.21e+03  -1.7 4.10e-01    -  1.00e+00 2.50e-01f  3
  74  6.1626187e+00 3.06e-05 6.42e-01  -1.7 3.27e-01    -  1.00e+00 1.00e+00h  1
  75  4.8888833e+00 3.07e-05 1.03e+04  -3.8 2.71e-02    -  9.99e-01 6.24e-01f  1
  76  4.2853495e+00 3.03e-05 5.19e+03  -3.8 5.01e-02    -  4.55e-01 8.51e-01f  1
  77  7.8322146e+00 2.62e-05 2.19e+04  -3.8 3.48e+00    -  2.31e-01 1.00e+00h  1
  78  1.2403907e+01 1.86e-05 2.82e+04  -3.8 4.51e+00    -  2.26e-01 1.00e+00h  1
  79  1.7488607e+01 1.75e-05 3.79e+04  -3.8 4.38e+00    -  5.63e-02 1.00e+00h  1
iter    objective    inf_pr   inf_du lg(mu)  ||d||  lg(rg) alpha_du alpha_pr  ls
  80  1.3618094e+01 1.72e-05 4.19e+04  -3.8 2.63e+00    -  2.02e-01 1.00e+00f  1
  81  1.5816624e+01 1.04e-05 5.52e+04  -3.8 5.03e+00    -  9.06e-02 1.00e+00H  1
  82  1.7023108e+01 9.45e-06 3.74e+04  -3.8 5.93e+00    -  4.67e-01 1.00e+00H  1
  83  1.8027074e+01 9.42e-06 3.32e+04  -3.8 3.22e+00    -  3.52e-01 1.00e+00H  1
  84  1.9162739e+01 8.76e-06 4.52e+04  -3.8 3.22e+00    -  1.76e-02 1.00e+00H  1
  85  1.9838269e+01 7.85e-06 4.90e+04  -3.8 3.61e+00    -  1.44e-01 1.00e+00H  1
  86  2.0845675e+01 7.21e-06 3.36e+04  -3.8 5.57e+00    -  4.38e-01 1.00e+00H  1
  87  2.1936666e+01 7.23e-06 3.31e+04  -3.8 3.29e+00    -  2.46e-01 1.00e+00H  1
  88  2.2480429e+01 7.12e-06 3.99e+04  -3.8 2.58e+00    -  1.28e-01 1.00e+00H  1
  89  2.3934683e+01 6.19e-06 4.52e+04  -3.8 2.25e+00    -  7.71e-02 1.00e+00H  1
iter    objective    inf_pr   inf_du lg(mu)  ||d||  lg(rg) alpha_du alpha_pr  ls
  90  2.4497271e+01 6.20e-06 2.55e+04  -3.8 6.77e+00    -  5.25e-01 1.00e+00H  1
  91  2.5058171e+01 6.16e-06 1.90e+04  -3.8 3.43e+00    -  4.81e-01 1.00e+00H  1
  92  2.5211907e+01 6.13e-06 1.99e+04  -3.8 1.48e+00    -  3.40e-01 1.00e+00H  1
  93  2.5475558e+01 6.11e-06 2.27e+04  -3.8 1.24e+00    -  2.67e-01 1.00e+00H  1
  94  2.5941529e+01 6.07e-06 1.18e+03  -3.8 2.21e+00    -  9.65e-01 1.00e+00H  1
  95  2.5903894e+01 6.06e-06 7.78e-02  -3.8 7.93e-02    -  1.00e+00 1.00e+00f  1
  96  2.5982269e+01 6.04e-06 1.27e+03  -5.7 8.16e-02    -  8.20e-01 8.98e-01h  1
  97  2.6064832e+01 6.01e-06 1.12e+04  -5.7 3.07e-02    -  3.63e-01 1.00e+00h  1
  98  2.6394367e+01 5.99e-06 2.16e+04  -5.7 2.77e-01    -  2.12e-01 1.00e+00h  1
  99  2.6759208e+01 6.07e-06 3.30e+04  -5.7 3.74e-01    -  1.35e-01 1.00e+00h  1
iter    objective    inf_pr   inf_du lg(mu)  ||d||  lg(rg) alpha_du alpha_pr  ls
 100  2.7214185e+01 6.09e-06 1.25e+00  -5.7 5.68e-01    -  1.00e+00 1.00e+00h  1
 101  2.6916095e+01 6.10e-06 7.13e-01  -5.7 3.71e-01    -  1.00e+00 1.00e+00f  1
 102  2.6987987e+01 6.11e-06 6.42e-01  -5.7 2.81e-02    -  1.00e+00 1.00e+00h  1
 103  2.7056921e+01 6.12e-06 1.31e+04  -5.7 2.64e-02    -  2.12e-01 1.00e+00h  1
 104  3.0293236e+01 5.78e-06 2.61e+00  -5.7 3.16e+00    -  1.00e+00 1.00e+00h  1
 105  2.8934778e+01 5.63e-06 9.63e-01  -5.7 1.42e+00    -  1.00e+00 1.00e+00f  1
 106  2.9069481e+01 5.49e-06 1.14e+04  -5.7 7.18e-02    -  2.34e-01 1.00e+00h  1
 107  2.9592398e+01 5.35e-06 2.04e+04  -5.7 3.24e-01    -  2.15e-01 1.00e+00h  1
 108  3.1686421e+01 2.84e-06 2.03e+00  -5.7 5.23e+00    -  1.00e+00 1.00e+00H  1
 109  3.1625319e+01 2.77e-06 3.10e-01  -5.7 1.21e-01    -  1.00e+00 1.00e+00f  1
iter    objective    inf_pr   inf_du lg(mu)  ||d||  lg(rg) alpha_du alpha_pr  ls
 110  3.1796859e+01 2.71e-06 3.14e+02  -5.7 1.08e-01    -  9.57e-01 1.00e+00h  1
 111  3.1863042e+01 2.64e-06 2.80e-01  -5.7 1.71e-02    -  1.00e+00 1.00e+00h  1
 112  3.1919588e+01 2.58e-06 4.55e+03  -5.7 1.64e-02    -  3.51e-01 1.00e+00h  1
 113  3.2064766e+01 2.53e-06 4.34e+03  -5.7 9.23e-02    -  6.19e-01 1.00e+00h  1
 114  3.2255689e+01 2.47e-06 2.25e-01  -5.7 1.95e-01    -  1.00e+00 1.00e+00h  1
 115  3.2193843e+01 2.42e-06 8.54e+01  -5.7 1.11e-01    -  9.87e-01 1.00e+00f  1
 116  3.2237649e+01 2.37e-06 5.23e+03  -5.7 1.44e-02    -  1.99e-01 1.00e+00h  1
 117  3.2544937e+01 2.33e-06 1.69e+03  -5.7 2.36e-01    -  8.54e-01 1.00e+00h  1
 118  3.2488659e+01 2.29e-06 1.77e-01  -5.7 1.11e-01    -  1.00e+00 1.00e+00f  1
 119  3.2538265e+01 2.24e-06 2.00e+02  -5.7 1.26e-02    -  9.67e-01 1.00e+00h  1
iter    objective    inf_pr   inf_du lg(mu)  ||d||  lg(rg) alpha_du alpha_pr  ls
 120  3.2592412e+01 2.20e-06 1.59e-01  -5.7 1.21e-02    -  1.00e+00 1.00e+00h  1
 121  3.2640604e+01 2.17e-06 1.51e-01  -5.7 1.17e-02    -  1.00e+00 1.00e+00h  1
 122  3.2687771e+01 2.15e-06 1.43e-01  -5.7 1.14e-02    -  1.00e+00 1.00e+00h  1
 123  3.2733782e+01 2.13e-06 1.36e-01  -5.7 1.10e-02    -  1.00e+00 1.00e+00h  1
 124  3.2778687e+01 2.11e-06 1.30e-01  -5.7 1.07e-02    -  1.00e+00 1.00e+00h  1
 125  3.2822537e+01 2.09e-06 1.24e-01  -5.7 1.04e-02    -  1.00e+00 1.00e+00h  1
 126  3.2865379e+01 2.07e-06 1.18e-01  -5.7 1.01e-02    -  1.00e+00 1.00e+00h  1
 127  3.2907285e+01 2.05e-06 1.13e-01  -5.7 9.86e-03    -  1.00e+00 1.00e+00h  1
 128  3.2950411e+01 2.04e-06 5.14e+03  -5.7 9.72e-03    -  7.01e-02 1.00e+00h  1
 129  3.3177067e+01 2.02e-06 1.04e-01  -5.7 1.80e-01    -  1.00e+00 1.00e+00h  1
iter    objective    inf_pr   inf_du lg(mu)  ||d||  lg(rg) alpha_du alpha_pr  ls
 130  3.3132567e+01 2.00e-06 9.96e-02  -5.7 8.69e-02    -  1.00e+00 1.00e+00f  1
 131  3.3175717e+01 1.99e-06 9.56e-02  -5.7 9.32e-03    -  1.00e+00 1.00e+00h  1
 132  3.3219181e+01 1.97e-06 9.17e-02  -5.7 9.20e-03    -  1.00e+00 1.00e+00h  1
 133  3.3260624e+01 1.95e-06 8.81e-02  -5.7 9.07e-03    -  1.00e+00 1.00e+00h  1
 134  3.3301310e+01 1.94e-06 8.48e-02  -5.7 8.95e-03    -  1.00e+00 1.00e+00h  1
 135  3.3341245e+01 1.92e-06 8.16e-02  -5.7 8.83e-03    -  1.00e+00 1.00e+00h  1
 136  3.3380454e+01 1.91e-06 7.85e-02  -5.7 8.72e-03    -  1.00e+00 1.00e+00h  1
 137  3.3418961e+01 1.89e-06 7.57e-02  -5.7 8.60e-03    -  1.00e+00 1.00e+00h  1
 138  3.3456790e+01 1.88e-06 7.30e-02  -5.7 8.49e-03    -  1.00e+00 1.00e+00h  1
 139  3.3493965e+01 1.87e-06 7.04e-02  -5.7 8.38e-03    -  1.00e+00 1.00e+00h  1
iter    objective    inf_pr   inf_du lg(mu)  ||d||  lg(rg) alpha_du alpha_pr  ls
 140  3.3530514e+01 1.85e-06 6.80e-02  -5.7 8.28e-03    -  1.00e+00 1.00e+00h  1
 141  3.3566484e+01 1.84e-06 6.57e-02  -5.7 8.17e-03    -  1.00e+00 1.00e+00h  1
 142  3.3602074e+01 1.83e-06 7.29e+02  -5.7 8.07e-03    -  8.53e-01 1.00e+00h  1
 143  3.3640128e+01 1.81e-06 6.13e-02  -5.7 7.98e-03    -  1.00e+00 1.00e+00h  1
 144  3.3672566e+01 1.80e-06 5.93e-02  -5.7 7.87e-03    -  1.00e+00 1.00e+00h  1
 145  3.3706237e+01 1.79e-06 5.75e-02  -5.7 7.78e-03    -  1.00e+00 1.00e+00h  1
 146  3.3739660e+01 1.78e-06 5.56e-02  -5.7 7.68e-03    -  1.00e+00 1.00e+00h  1
 147  3.3772230e+01 1.77e-06 5.39e-02  -5.7 7.59e-03    -  1.00e+00 1.00e+00h  1
 148  3.3804274e+01 1.76e-06 5.23e-02  -5.7 7.50e-03    -  1.00e+00 1.00e+00h  1
 149  3.3835826e+01 1.74e-06 5.07e-02  -5.7 7.40e-03    -  1.00e+00 1.00e+00h  1
iter    objective    inf_pr   inf_du lg(mu)  ||d||  lg(rg) alpha_du alpha_pr  ls
 150  3.3866897e+01 1.73e-06 4.92e-02  -5.7 7.31e-03    -  1.00e+00 1.00e+00h  1
 151  3.3897501e+01 1.72e-06 4.78e-02  -5.7 7.23e-03    -  1.00e+00 1.00e+00h  1
 152  3.3927649e+01 1.71e-06 4.64e-02  -5.7 7.14e-03    -  1.00e+00 1.00e+00h  1
 153  3.3957352e+01 1.70e-06 4.51e-02  -5.7 7.06e-03    -  1.00e+00 1.00e+00h  1
 154  3.3986623e+01 1.69e-06 4.38e-02  -5.7 6.97e-03    -  1.00e+00 1.00e+00h  1
 155  3.4015472e+01 1.68e-06 4.26e-02  -5.7 6.89e-03    -  1.00e+00 1.00e+00h  1
 156  3.4043910e+01 1.67e-06 4.15e-02  -5.7 6.81e-03    -  1.00e+00 1.00e+00h  1
 157  3.4071946e+01 1.66e-06 4.04e-02  -5.7 6.73e-03    -  1.00e+00 1.00e+00h  1
 158  3.4099592e+01 1.65e-06 3.93e-02  -5.7 6.65e-03    -  1.00e+00 1.00e+00h  1
 159  3.4126858e+01 1.64e-06 3.83e-02  -5.7 6.57e-03    -  1.00e+00 1.00e+00h  1
iter    objective    inf_pr   inf_du lg(mu)  ||d||  lg(rg) alpha_du alpha_pr  ls
 160  3.4153755e+01 1.63e-06 3.73e-02  -5.7 6.50e-03    -  1.00e+00 1.00e+00h  1
 161  3.4180298e+01 1.63e-06 3.63e-02  -5.7 6.42e-03    -  1.00e+00 1.00e+00h  1
 162  3.4206516e+01 1.62e-06 3.54e-02  -5.7 6.35e-03    -  1.00e+00 1.00e+00h  1
 163  3.4232529e+01 1.61e-06 3.45e-02  -5.7 6.28e-03    -  1.00e+00 1.00e+00h  1
 164  3.4274383e+01 1.60e-06 4.19e+03  -5.7 1.65e-02    -  3.43e-02 1.00e+00h  1
 165  3.5788074e+01 1.58e-06 7.76e-02  -5.7 1.50e+00    -  1.00e+00 1.00e+00h  1
 166  3.5071161e+01 1.56e-06 5.08e-02  -5.7 7.37e-01    -  1.00e+00 1.00e+00f  1
 167  3.5094321e+01 1.55e-06 4.89e-02  -5.7 4.08e-03    -  1.00e+00 1.00e+00h  1
 168  3.5121612e+01 1.53e-06 4.74e-02  -5.7 7.94e-03    -  1.00e+00 1.00e+00h  1
 169  3.5143732e+01 1.52e-06 4.58e-02  -5.7 3.96e-03    -  1.00e+00 1.00e+00h  1
iter    objective    inf_pr   inf_du lg(mu)  ||d||  lg(rg) alpha_du alpha_pr  ls
 170  3.5165488e+01 1.51e-06 4.42e-02  -5.7 3.90e-03    -  1.00e+00 1.00e+00h  1
 171  3.5186870e+01 1.49e-06 4.27e-02  -5.7 3.85e-03    -  1.00e+00 1.00e+00h  1
 172  3.5207888e+01 1.48e-06 4.13e-02  -5.7 3.79e-03    -  1.00e+00 1.00e+00h  1
 173  3.5228553e+01 1.47e-06 4.00e-02  -5.7 3.74e-03    -  1.00e+00 1.00e+00h  1
 174  3.5248876e+01 1.46e-06 3.87e-02  -5.7 3.69e-03    -  1.00e+00 1.00e+00h  1
 175  3.5268866e+01 1.44e-06 3.75e-02  -5.7 3.64e-03    -  1.00e+00 1.00e+00h  1
 176  3.5288538e+01 1.43e-06 3.63e-02  -5.7 3.59e-03    -  1.00e+00 1.00e+00h  1
 177  3.5307913e+01 1.42e-06 3.52e-02  -5.7 3.55e-03    -  1.00e+00 1.00e+00h  1
 178  3.5327092e+01 1.41e-06 6.34e+02  -5.7 3.50e-03    -  8.34e-01 1.00e+00h  1
 179  3.5424075e+01 1.40e-06 3.48e-02  -5.7 7.64e-02    -  1.00e+00 1.00e+00h  1
iter    objective    inf_pr   inf_du lg(mu)  ||d||  lg(rg) alpha_du alpha_pr  ls
 180  3.5404261e+01 1.39e-06 3.29e-02  -5.7 3.92e-02    -  1.00e+00 1.00e+00f  1
 181  3.5423284e+01 1.38e-06 3.19e-02  -5.7 3.34e-03    -  1.00e+00 1.00e+00h  1
 182  3.5453718e+01 1.37e-06 3.12e-02  -5.7 1.14e-02    -  1.00e+00 1.00e+00h  1
 183  3.5473075e+01 1.36e-06 3.03e-02  -5.7 3.25e-03    -  1.00e+00 1.00e+00h  1
 184  3.5492203e+01 1.35e-06 2.87e+02  -5.7 3.21e-03    -  9.22e-01 1.00e+00h  1
 185  3.5572648e+01 1.34e-06 2.87e-02  -5.7 6.07e-02    -  1.00e+00 1.00e+00h  1
 186  3.5559837e+01 1.33e-06 2.78e-02  -5.7 3.18e-02    -  1.00e+00 1.00e+00f  1
 187  3.5578101e+01 1.32e-06 2.71e-02  -5.7 3.10e-03    -  1.00e+00 1.00e+00h  1
 188  3.5606801e+01 1.32e-06 2.63e-02  -5.7 1.01e-02    -  1.00e+00 1.00e+00h  1
 189  3.5625784e+01 1.31e-06 2.56e-02  -5.7 3.02e-03    -  1.00e+00 1.00e+00h  1
iter    objective    inf_pr   inf_du lg(mu)  ||d||  lg(rg) alpha_du alpha_pr  ls
 190  3.5644128e+01 1.30e-06 2.49e-02  -5.7 2.99e-03    -  1.00e+00 1.00e+00h  1
 191  3.5662301e+01 1.29e-06 2.43e-02  -5.7 2.95e-03    -  1.00e+00 1.00e+00h  1
 192  3.5680241e+01 1.28e-06 2.36e-02  -5.7 2.92e-03    -  1.00e+00 1.00e+00h  1
 193  3.5697951e+01 1.28e-06 2.30e-02  -5.7 2.89e-03    -  1.00e+00 1.00e+00h  1
 194  3.5715436e+01 1.27e-06 2.24e-02  -5.7 2.85e-03    -  1.00e+00 1.00e+00h  1
 195  3.5732702e+01 1.26e-06 2.18e-02  -5.7 2.82e-03    -  1.00e+00 1.00e+00h  1
 196  3.5749752e+01 1.25e-06 2.13e-02  -5.7 2.79e-03    -  1.00e+00 1.00e+00h  1
 197  3.5766591e+01 1.25e-06 2.07e-02  -5.7 2.76e-03    -  1.00e+00 1.00e+00h  1
 198  3.5783223e+01 1.24e-06 2.02e-02  -5.7 2.73e-03    -  1.00e+00 1.00e+00h  1
 199  3.5799652e+01 1.23e-06 1.97e-02  -5.7 2.70e-03    -  1.00e+00 1.00e+00h  1
iter    objective    inf_pr   inf_du lg(mu)  ||d||  lg(rg) alpha_du alpha_pr  ls
 200  3.5815882e+01 1.23e-06 1.92e-02  -5.7 2.67e-03    -  1.00e+00 1.00e+00h  1
 201  3.5831917e+01 1.22e-06 1.88e-02  -5.7 2.64e-03    -  1.00e+00 1.00e+00h  1
 202  3.5847760e+01 1.22e-06 1.83e-02  -5.7 2.61e-03    -  1.00e+00 1.00e+00h  1
 203  3.5863416e+01 1.21e-06 1.79e-02  -5.7 2.59e-03    -  1.00e+00 1.00e+00h  1
 204  3.5878887e+01 1.20e-06 1.74e-02  -5.7 2.56e-03    -  1.00e+00 1.00e+00h  1
 205  3.5894178e+01 1.20e-06 1.70e-02  -5.7 2.53e-03    -  1.00e+00 1.00e+00h  1
 206  3.5909292e+01 1.19e-06 1.66e-02  -5.7 2.51e-03    -  1.00e+00 1.00e+00h  1
 207  3.5924231e+01 1.19e-06 1.62e-02  -5.7 2.48e-03    -  1.00e+00 1.00e+00h  1
 208  3.5939000e+01 1.18e-06 1.59e-02  -5.7 2.46e-03    -  1.00e+00 1.00e+00h  1
 209  3.5953601e+01 1.18e-06 1.55e-02  -5.7 2.43e-03    -  1.00e+00 1.00e+00h  1
iter    objective    inf_pr   inf_du lg(mu)  ||d||  lg(rg) alpha_du alpha_pr  ls
 210  3.5968038e+01 1.17e-06 1.52e-02  -5.7 2.41e-03    -  1.00e+00 1.00e+00h  1
 211  3.5982313e+01 1.17e-06 1.48e-02  -5.7 2.38e-03    -  1.00e+00 1.00e+00h  1
 212  3.5996430e+01 1.16e-06 1.45e-02  -5.7 2.36e-03    -  1.00e+00 1.00e+00h  1
 213  3.6010392e+01 1.16e-06 1.42e-02  -5.7 2.34e-03    -  1.00e+00 1.00e+00h  1
 214  3.6024202e+01 1.15e-06 1.38e-02  -5.7 2.32e-03    -  1.00e+00 1.00e+00h  1
 215  3.6037865e+01 1.15e-06 1.35e-02  -5.7 2.29e-03    -  1.00e+00 1.00e+00h  1
 216  3.6051384e+01 1.14e-06 1.33e-02  -5.7 2.27e-03    -  1.00e+00 1.00e+00h  1
 217  3.6064770e+01 1.14e-06 1.30e-02  -5.7 2.25e-03    -  1.00e+00 1.00e+00h  1
 218  3.6078051e+01 1.13e-06 1.27e-02  -5.7 2.23e-03    -  1.00e+00 1.00e+00h  1
 219  3.6091435e+01 1.13e-06 9.98e+02  -5.7 2.21e-03    -  6.74e-01 1.00e+00h  1
iter    objective    inf_pr   inf_du lg(mu)  ||d||  lg(rg) alpha_du alpha_pr  ls
 220  3.6157754e+01 1.12e-06 1.22e-02  -5.7 5.25e-02    -  1.00e+00 1.00e+00h  1
 221  3.6144621e+01 1.12e-06 1.19e-02  -5.7 2.64e-02    -  1.00e+00 1.00e+00f  1
 222  3.6157941e+01 1.12e-06 1.17e-02  -5.7 2.15e-03    -  1.00e+00 1.00e+00h  1
 223  3.6176714e+01 1.11e-06 1.14e-02  -5.7 5.68e-03    -  1.00e+00 1.00e+00h  1
 224  3.6189881e+01 1.11e-06 1.12e-02  -5.7 2.11e-03    -  1.00e+00 1.00e+00h  1
 225  3.6202936e+01 1.10e-06 1.10e-02  -5.7 2.09e-03    -  1.00e+00 1.00e+00h  1
 226  3.6215866e+01 1.10e-06 1.08e-02  -5.7 2.08e-03    -  1.00e+00 1.00e+00h  1
 227  3.6228674e+01 1.10e-06 1.06e-02  -5.7 2.06e-03    -  1.00e+00 1.00e+00h  1
 228  3.6241362e+01 1.09e-06 1.05e-02  -5.7 2.04e-03    -  1.00e+00 1.00e+00h  1
 229  3.6253932e+01 1.09e-06 1.03e-02  -5.7 2.02e-03    -  1.00e+00 1.00e+00h  1
iter    objective    inf_pr   inf_du lg(mu)  ||d||  lg(rg) alpha_du alpha_pr  ls
 230  3.6266386e+01 1.09e-06 1.02e-02  -5.7 2.00e-03    -  1.00e+00 1.00e+00h  1
 231  3.6278727e+01 1.08e-06 1.01e-02  -5.7 1.99e-03    -  1.00e+00 1.00e+00h  1
 232  3.6290955e+01 1.08e-06 9.93e-03  -5.7 1.97e-03    -  1.00e+00 1.00e+00h  1
 233  3.6303075e+01 1.08e-06 9.80e-03  -5.7 1.95e-03    -  1.00e+00 1.00e+00h  1
 234  3.6315087e+01 1.07e-06 9.68e-03  -5.7 1.94e-03    -  1.00e+00 1.00e+00h  1
 235  3.6326995e+01 1.07e-06 9.55e-03  -5.7 1.92e-03    -  1.00e+00 1.00e+00h  1
 236  3.6338803e+01 1.07e-06 9.43e-03  -5.7 1.91e-03    -  1.00e+00 1.00e+00h  1
 237  3.6350518e+01 1.06e-06 9.31e-03  -5.7 1.89e-03    -  1.00e+00 1.00e+00h  1
 238  3.6362154e+01 1.06e-06 9.19e-03  -5.7 1.87e-03    -  1.00e+00 1.00e+00h  1
 239  3.6373750e+01 1.06e-06 9.08e-03  -5.7 1.86e-03    -  1.00e+00 1.00e+00h  1
iter    objective    inf_pr   inf_du lg(mu)  ||d||  lg(rg) alpha_du alpha_pr  ls
 240  3.6385504e+01 1.05e-06 8.97e-03  -5.7 1.84e-03    -  1.00e+00 1.00e+00h  1
 241  3.6403519e+01 1.04e-06 2.37e+03  -5.7 6.77e-03    -  1.59e-01 1.00e+00h  1
 242  3.7912969e+01 8.50e-07 1.76e-02  -5.7 1.50e+00    -  1.00e+00 1.00e+00h  1
 243  3.7183202e+01 8.46e-07 8.76e-03  -5.7 7.38e-01    -  1.00e+00 1.00e+00f  1
 244  3.7193812e+01 8.43e-07 8.65e-03  -5.7 2.78e-03    -  1.00e+00 1.00e+00h  1
 245  3.7228482e+01 8.39e-07 8.55e-03  -5.7 2.70e-02    -  1.00e+00 1.00e+00h  1
 246  3.7237741e+01 8.36e-07 8.45e-03  -5.7 1.78e-03    -  1.00e+00 1.00e+00h  1
 247  3.7247018e+01 8.33e-07 8.34e-03  -5.7 1.77e-03    -  1.00e+00 1.00e+00h  1
 248  3.7256230e+01 8.29e-07 8.24e-03  -5.7 1.75e-03    -  1.00e+00 1.00e+00h  1
 249  3.7265379e+01 8.26e-07 8.15e-03  -5.7 1.74e-03    -  1.00e+00 1.00e+00h  1
iter    objective    inf_pr   inf_du lg(mu)  ||d||  lg(rg) alpha_du alpha_pr  ls
 250  3.7274467e+01 8.23e-07 8.05e-03  -5.7 1.73e-03    -  1.00e+00 1.00e+00h  1
 251  3.7283495e+01 8.19e-07 7.95e-03  -5.7 1.71e-03    -  1.00e+00 1.00e+00h  1
 252  3.7292462e+01 8.16e-07 7.86e-03  -5.7 1.70e-03    -  1.00e+00 1.00e+00h  1
 253  3.7301370e+01 8.13e-07 7.77e-03  -5.7 1.69e-03    -  1.00e+00 1.00e+00h  1
 254  3.7310220e+01 8.10e-07 7.68e-03  -5.7 1.67e-03    -  1.00e+00 1.00e+00h  1
 255  3.7319012e+01 8.07e-07 7.59e-03  -5.7 1.66e-03    -  1.00e+00 1.00e+00h  1
 256  3.7327746e+01 8.03e-07 7.50e-03  -5.7 1.65e-03    -  1.00e+00 1.00e+00h  1
 257  3.7336424e+01 8.00e-07 7.42e-03  -5.7 1.65e-03    -  1.00e+00 1.00e+00h  1
 258  3.7345047e+01 7.97e-07 7.33e-03  -5.7 1.64e-03    -  1.00e+00 1.00e+00h  1
 259  3.7353613e+01 7.94e-07 7.25e-03  -5.7 1.63e-03    -  1.00e+00 1.00e+00h  1
iter    objective    inf_pr   inf_du lg(mu)  ||d||  lg(rg) alpha_du alpha_pr  ls
 260  3.7362126e+01 7.91e-07 7.17e-03  -5.7 1.62e-03    -  1.00e+00 1.00e+00h  1
 261  3.7370584e+01 7.88e-07 7.09e-03  -5.7 1.62e-03    -  1.00e+00 1.00e+00h  1
 262  3.7378989e+01 7.85e-07 7.01e-03  -5.7 1.61e-03    -  1.00e+00 1.00e+00h  1
 263  3.7387341e+01 7.82e-07 6.93e-03  -5.7 1.60e-03    -  1.00e+00 1.00e+00h  1
 264  3.7395642e+01 7.80e-07 6.85e-03  -5.7 1.59e-03    -  1.00e+00 1.00e+00h  1
 265  3.7403890e+01 7.77e-07 6.78e-03  -5.7 1.59e-03    -  1.00e+00 1.00e+00h  1
 266  3.7412088e+01 7.74e-07 6.71e-03  -5.7 1.58e-03    -  1.00e+00 1.00e+00h  1
 267  3.7420235e+01 7.71e-07 6.63e-03  -5.7 1.57e-03    -  1.00e+00 1.00e+00h  1
 268  3.7428333e+01 7.68e-07 6.56e-03  -5.7 1.57e-03    -  1.00e+00 1.00e+00h  1
 269  3.7436382e+01 7.66e-07 6.49e-03  -5.7 1.56e-03    -  1.00e+00 1.00e+00h  1
iter    objective    inf_pr   inf_du lg(mu)  ||d||  lg(rg) alpha_du alpha_pr  ls
 270  3.7444382e+01 7.63e-07 6.42e-03  -5.7 1.55e-03    -  1.00e+00 1.00e+00h  1
 271  3.7452334e+01 7.60e-07 6.35e-03  -5.7 1.54e-03    -  1.00e+00 1.00e+00h  1
 272  3.7460240e+01 7.57e-07 6.29e-03  -5.7 1.54e-03    -  1.00e+00 1.00e+00h  1
 273  3.7468099e+01 7.55e-07 6.22e-03  -5.7 1.53e-03    -  1.00e+00 1.00e+00h  1
 274  3.7475914e+01 7.52e-07 6.16e-03  -5.7 1.52e-03    -  1.00e+00 1.00e+00h  1
 275  3.7483685e+01 7.50e-07 6.09e-03  -5.7 1.52e-03    -  1.00e+00 1.00e+00h  1
 276  3.7491416e+01 7.47e-07 6.03e-03  -5.7 1.51e-03    -  1.00e+00 1.00e+00h  1
 277  3.7499110e+01 7.44e-07 5.97e-03  -5.7 1.51e-03    -  1.00e+00 1.00e+00h  1
 278  3.7506781e+01 7.42e-07 5.91e-03  -5.7 1.50e-03    -  1.00e+00 1.00e+00h  1
 279  3.7514463e+01 7.39e-07 5.85e-03  -5.7 1.49e-03    -  1.00e+00 1.00e+00h  1
iter    objective    inf_pr   inf_du lg(mu)  ||d||  lg(rg) alpha_du alpha_pr  ls
 280  3.7522351e+01 7.37e-07 5.79e-03  -5.7 1.48e-03    -  1.00e+00 1.00e+00h  1
 281  3.7537829e+01 7.34e-07 1.34e+03  -5.7 7.99e-03    -  3.26e-01 1.00e+00h  1
 282  3.7548680e+01 7.32e-07 5.66e-03  -5.7 3.41e-03    -  1.00e+00 1.00e+00h  1
 283  3.7554521e+01 7.29e-07 5.60e-03  -5.7 1.56e-03    -  1.00e+00 1.00e+00h  1
 284  3.7562026e+01 7.27e-07 5.55e-03  -5.7 1.44e-03    -  1.00e+00 1.00e+00h  1
 285  3.7569451e+01 7.25e-07 5.49e-03  -5.7 1.43e-03    -  1.00e+00 1.00e+00h  1
 286  3.7576823e+01 7.22e-07 5.44e-03  -5.7 1.43e-03    -  1.00e+00 1.00e+00h  1
 287  3.7584154e+01 7.20e-07 5.38e-03  -5.7 1.42e-03    -  1.00e+00 1.00e+00h  1
 288  3.7591446e+01 7.18e-07 5.33e-03  -5.7 1.41e-03    -  1.00e+00 1.00e+00h  1
 289  3.7598697e+01 7.15e-07 5.28e-03  -5.7 1.41e-03    -  1.00e+00 1.00e+00h  1
iter    objective    inf_pr   inf_du lg(mu)  ||d||  lg(rg) alpha_du alpha_pr  ls
 290  3.7605909e+01 7.13e-07 5.23e-03  -5.7 1.40e-03    -  1.00e+00 1.00e+00h  1
 291  3.7613083e+01 7.11e-07 5.18e-03  -5.7 1.40e-03    -  1.00e+00 1.00e+00h  1
 292  3.7620217e+01 7.08e-07 5.13e-03  -5.7 1.39e-03    -  1.00e+00 1.00e+00h  1
 293  3.7627314e+01 7.06e-07 5.08e-03  -5.7 1.38e-03    -  1.00e+00 1.00e+00h  1
 294  3.7634373e+01 7.04e-07 5.03e-03  -5.7 1.38e-03    -  1.00e+00 1.00e+00h  1
 295  3.7641394e+01 7.02e-07 4.99e-03  -5.7 1.37e-03    -  1.00e+00 1.00e+00h  1
 296  3.7648378e+01 7.00e-07 4.94e-03  -5.7 1.37e-03    -  1.00e+00 1.00e+00h  1
 297  3.7655326e+01 6.97e-07 4.89e-03  -5.7 1.36e-03    -  1.00e+00 1.00e+00h  1
 298  3.7662237e+01 6.95e-07 4.85e-03  -5.7 1.36e-03    -  1.00e+00 1.00e+00h  1
 299  3.7669112e+01 6.93e-07 4.80e-03  -5.7 1.35e-03    -  1.00e+00 1.00e+00h  1
iter    objective    inf_pr   inf_du lg(mu)  ||d||  lg(rg) alpha_du alpha_pr  ls
 300  3.7675951e+01 6.91e-07 4.76e-03  -5.7 1.34e-03    -  1.00e+00 1.00e+00h  1
 301  3.7682755e+01 6.89e-07 4.72e-03  -5.7 1.34e-03    -  1.00e+00 1.00e+00h  1
 302  3.7689524e+01 6.87e-07 4.67e-03  -5.7 1.33e-03    -  1.00e+00 1.00e+00h  1
 303  3.7696259e+01 6.85e-07 4.63e-03  -5.7 1.33e-03    -  1.00e+00 1.00e+00h  1
 304  3.7702958e+01 6.83e-07 4.59e-03  -5.7 1.32e-03    -  1.00e+00 1.00e+00h  1
 305  3.7709624e+01 6.81e-07 4.55e-03  -5.7 1.32e-03    -  1.00e+00 1.00e+00h  1
 306  3.7716257e+01 6.78e-07 4.51e-03  -5.7 1.31e-03    -  1.00e+00 1.00e+00h  1
 307  3.7722855e+01 6.76e-07 4.47e-03  -5.7 1.31e-03    -  1.00e+00 1.00e+00h  1
 308  3.7729421e+01 6.74e-07 4.43e-03  -5.7 1.30e-03    -  1.00e+00 1.00e+00h  1
 309  3.7735954e+01 6.72e-07 4.39e-03  -5.7 1.30e-03    -  1.00e+00 1.00e+00h  1
iter    objective    inf_pr   inf_du lg(mu)  ||d||  lg(rg) alpha_du alpha_pr  ls
 310  3.7742454e+01 6.71e-07 4.35e-03  -5.7 1.29e-03    -  1.00e+00 1.00e+00h  1
 311  3.7748922e+01 6.69e-07 4.31e-03  -5.7 1.29e-03    -  1.00e+00 1.00e+00h  1
 312  3.7755358e+01 6.67e-07 4.28e-03  -5.7 1.28e-03    -  1.00e+00 1.00e+00h  1
 313  3.7761763e+01 6.65e-07 4.24e-03  -5.7 1.28e-03    -  1.00e+00 1.00e+00h  1
 314  3.7768136e+01 6.63e-07 4.20e-03  -5.7 1.27e-03    -  1.00e+00 1.00e+00h  1
 315  3.7774478e+01 6.61e-07 4.17e-03  -5.7 1.27e-03    -  1.00e+00 1.00e+00h  1
 316  3.7780789e+01 6.59e-07 4.13e-03  -5.7 1.26e-03    -  1.00e+00 1.00e+00h  1
 317  3.7787070e+01 6.57e-07 4.09e-03  -5.7 1.26e-03    -  1.00e+00 1.00e+00h  1
 318  3.7793321e+01 6.55e-07 4.06e-03  -5.7 1.25e-03    -  1.00e+00 1.00e+00h  1
 319  3.7799814e+01 6.53e-07 5.73e-03  -6.0 1.32e-03    -  1.00e+00 1.00e+00h  1
iter    objective    inf_pr   inf_du lg(mu)  ||d||  lg(rg) alpha_du alpha_pr  ls
 320  3.7808006e+01 6.51e-07 5.67e-03  -6.0 1.66e-03    -  1.00e+00 1.00e+00h  1
 321  3.7815346e+01 6.49e-07 5.61e-03  -6.0 1.47e-03    -  1.00e+00 1.00e+00h  1
 322  3.7822640e+01 6.46e-07 5.56e-03  -6.0 1.47e-03    -  1.00e+00 1.00e+00h  1
 323  3.7829892e+01 6.44e-07 5.50e-03  -6.0 1.46e-03    -  1.00e+00 1.00e+00h  1
 324  3.7837104e+01 6.42e-07 5.45e-03  -6.0 1.45e-03    -  1.00e+00 1.00e+00h  1
 325  3.7844275e+01 6.40e-07 5.40e-03  -6.0 1.45e-03    -  1.00e+00 1.00e+00h  1
 326  3.7851407e+01 6.38e-07 5.34e-03  -6.0 1.44e-03    -  1.00e+00 1.00e+00h  1
 327  3.7858500e+01 6.36e-07 5.29e-03  -6.0 1.43e-03    -  1.00e+00 1.00e+00h  1
 328  3.7865554e+01 6.34e-07 5.24e-03  -6.0 1.43e-03    -  1.00e+00 1.00e+00h  1
 329  3.7872569e+01 6.32e-07 5.19e-03  -6.0 1.42e-03    -  1.00e+00 1.00e+00h  1
iter    objective    inf_pr   inf_du lg(mu)  ||d||  lg(rg) alpha_du alpha_pr  ls
 330  3.7879546e+01 6.30e-07 5.14e-03  -6.0 1.41e-03    -  1.00e+00 1.00e+00h  1
 331  3.7886486e+01 6.28e-07 5.09e-03  -6.0 1.41e-03    -  1.00e+00 1.00e+00h  1
 332  3.7893388e+01 6.26e-07 5.04e-03  -6.0 1.40e-03    -  1.00e+00 1.00e+00h  1
 333  3.7900253e+01 6.24e-07 5.00e-03  -6.0 1.40e-03    -  1.00e+00 1.00e+00h  1
 334  3.7907082e+01 6.22e-07 4.95e-03  -6.0 1.39e-03    -  1.00e+00 1.00e+00h  1
 335  3.7913875e+01 6.20e-07 4.90e-03  -6.0 1.38e-03    -  1.00e+00 1.00e+00h  1
 336  3.7920632e+01 6.18e-07 4.86e-03  -6.0 1.38e-03    -  1.00e+00 1.00e+00h  1
 337  3.7927354e+01 6.16e-07 4.81e-03  -6.0 1.37e-03    -  1.00e+00 1.00e+00h  1
 338  3.7934042e+01 6.14e-07 4.77e-03  -6.0 1.37e-03    -  1.00e+00 1.00e+00h  1
 339  3.7940697e+01 6.12e-07 4.73e-03  -6.0 1.36e-03    -  1.00e+00 1.00e+00h  1
iter    objective    inf_pr   inf_du lg(mu)  ||d||  lg(rg) alpha_du alpha_pr  ls
 340  3.7947320e+01 6.11e-07 4.68e-03  -6.0 1.35e-03    -  1.00e+00 1.00e+00h  1
 341  3.7953914e+01 6.09e-07 4.64e-03  -6.0 1.35e-03    -  1.00e+00 1.00e+00h  1
 342  3.7960489e+01 6.07e-07 4.60e-03  -6.0 1.34e-03    -  1.00e+00 1.00e+00h  1
 343  3.7967084e+01 6.05e-07 4.56e-03  -6.0 1.34e-03    -  1.00e+00 1.00e+00h  1
 344  3.7974289e+01 6.03e-07 1.29e+03  -6.0 1.33e-03    -  3.39e-01 1.00e+00h  1
 345  3.8011353e+01 6.01e-07 4.47e-03  -6.0 3.02e-02    -  1.00e+00 1.00e+00h  1
 346  3.8003271e+01 6.00e-07 4.43e-03  -6.0 1.47e-02    -  1.00e+00 1.00e+00f  1
 347  3.8010084e+01 5.98e-07 4.40e-03  -6.0 1.31e-03    -  1.00e+00 1.00e+00h  1
 348  3.8017963e+01 5.96e-07 4.36e-03  -6.0 1.31e-03    -  1.00e+00 1.00e+00h  1
 349  3.8024619e+01 5.94e-07 4.32e-03  -6.0 1.30e-03    -  1.00e+00 1.00e+00h  1
iter    objective    inf_pr   inf_du lg(mu)  ||d||  lg(rg) alpha_du alpha_pr  ls
 350  3.8031248e+01 5.93e-07 4.28e-03  -6.0 1.30e-03    -  1.00e+00 1.00e+00h  1
 351  3.8037847e+01 5.91e-07 4.24e-03  -6.0 1.29e-03    -  1.00e+00 1.00e+00h  1
 352  3.8044415e+01 5.89e-07 4.21e-03  -6.0 1.29e-03    -  1.00e+00 1.00e+00h  1
 353  3.8050952e+01 5.88e-07 4.17e-03  -6.0 1.28e-03    -  1.00e+00 1.00e+00h  1
 354  3.8057459e+01 5.86e-07 4.13e-03  -6.0 1.28e-03    -  1.00e+00 1.00e+00h  1
 355  3.8063937e+01 5.84e-07 4.10e-03  -6.0 1.27e-03    -  1.00e+00 1.00e+00h  1
 356  3.8070384e+01 5.83e-07 4.06e-03  -6.0 1.27e-03    -  1.00e+00 1.00e+00h  1
 357  3.8076803e+01 5.81e-07 4.03e-03  -6.0 1.26e-03    -  1.00e+00 1.00e+00h  1
 358  3.8083192e+01 5.79e-07 4.00e-03  -6.0 1.26e-03    -  1.00e+00 1.00e+00h  1
 359  3.8089553e+01 5.78e-07 3.96e-03  -6.0 1.25e-03    -  1.00e+00 1.00e+00h  1
iter    objective    inf_pr   inf_du lg(mu)  ||d||  lg(rg) alpha_du alpha_pr  ls
 360  3.8095885e+01 5.76e-07 3.93e-03  -6.0 1.25e-03    -  1.00e+00 1.00e+00h  1
 361  3.8102189e+01 5.74e-07 3.90e-03  -6.0 1.24e-03    -  1.00e+00 1.00e+00h  1
 362  3.8108465e+01 5.73e-07 3.87e-03  -6.0 1.24e-03    -  1.00e+00 1.00e+00h  1
 363  3.8114713e+01 5.71e-07 3.83e-03  -6.0 1.23e-03    -  1.00e+00 1.00e+00h  1
 364  3.8120933e+01 5.70e-07 3.80e-03  -6.0 1.23e-03    -  1.00e+00 1.00e+00h  1
 365  3.8127126e+01 5.68e-07 3.77e-03  -6.0 1.22e-03    -  1.00e+00 1.00e+00h  1
 366  3.8133292e+01 5.67e-07 3.74e-03  -6.0 1.22e-03    -  1.00e+00 1.00e+00h  1
 367  3.8139431e+01 5.65e-07 3.71e-03  -6.0 1.21e-03    -  1.00e+00 1.00e+00h  1
 368  3.8145543e+01 5.63e-07 3.68e-03  -6.0 1.21e-03    -  1.00e+00 1.00e+00h  1
 369  3.8151629e+01 5.62e-07 3.65e-03  -6.0 1.20e-03    -  1.00e+00 1.00e+00h  1
iter    objective    inf_pr   inf_du lg(mu)  ||d||  lg(rg) alpha_du alpha_pr  ls
 370  3.8157689e+01 5.60e-07 3.62e-03  -6.0 1.20e-03    -  1.00e+00 1.00e+00h  1
 371  3.8163723e+01 5.59e-07 3.59e-03  -6.0 1.19e-03    -  1.00e+00 1.00e+00h  1
 372  3.8169731e+01 5.57e-07 3.56e-03  -6.0 1.19e-03    -  1.00e+00 1.00e+00h  1
 373  3.8175713e+01 5.56e-07 3.53e-03  -6.0 1.18e-03    -  1.00e+00 1.00e+00h  1
 374  3.8181670e+01 5.55e-07 3.51e-03  -6.0 1.18e-03    -  1.00e+00 1.00e+00h  1
 375  3.8187602e+01 5.53e-07 3.48e-03  -6.0 1.18e-03    -  1.00e+00 1.00e+00h  1
 376  3.8193509e+01 5.52e-07 3.45e-03  -6.0 1.17e-03    -  1.00e+00 1.00e+00h  1
 377  3.8199391e+01 5.50e-07 3.43e-03  -6.0 1.17e-03    -  1.00e+00 1.00e+00h  1
 378  3.8205249e+01 5.49e-07 3.40e-03  -6.0 1.16e-03    -  1.00e+00 1.00e+00h  1
 379  3.8211082e+01 5.47e-07 3.37e-03  -6.0 1.16e-03    -  1.00e+00 1.00e+00h  1
iter    objective    inf_pr   inf_du lg(mu)  ||d||  lg(rg) alpha_du alpha_pr  ls
 380  3.8216892e+01 5.46e-07 3.35e-03  -6.0 1.15e-03    -  1.00e+00 1.00e+00h  1
 381  3.8222677e+01 5.44e-07 3.32e-03  -6.0 1.15e-03    -  1.00e+00 1.00e+00h  1
 382  3.8228438e+01 5.43e-07 3.29e-03  -6.0 1.14e-03    -  1.00e+00 1.00e+00h  1
 383  3.8234176e+01 5.42e-07 3.27e-03  -6.0 1.14e-03    -  1.00e+00 1.00e+00h  1
 384  3.8239891e+01 5.40e-07 3.24e-03  -6.0 1.14e-03    -  1.00e+00 1.00e+00h  1
 385  3.8245582e+01 5.39e-07 3.22e-03  -6.0 1.13e-03    -  1.00e+00 1.00e+00h  1
 386  3.8251250e+01 5.38e-07 3.20e-03  -6.0 1.13e-03    -  1.00e+00 1.00e+00h  1
 387  3.8256896e+01 5.36e-07 3.17e-03  -6.0 1.12e-03    -  1.00e+00 1.00e+00h  1
 388  3.8262519e+01 5.35e-07 3.15e-03  -6.0 1.12e-03    -  1.00e+00 1.00e+00h  1
 389  3.8268119e+01 5.34e-07 3.12e-03  -6.0 1.11e-03    -  1.00e+00 1.00e+00h  1
iter    objective    inf_pr   inf_du lg(mu)  ||d||  lg(rg) alpha_du alpha_pr  ls
 390  3.8273697e+01 5.32e-07 3.10e-03  -6.0 1.11e-03    -  1.00e+00 1.00e+00h  1
 391  3.8279253e+01 5.31e-07 3.08e-03  -6.0 1.11e-03    -  1.00e+00 1.00e+00h  1
 392  3.8284787e+01 5.30e-07 3.06e-03  -6.0 1.10e-03    -  1.00e+00 1.00e+00h  1
 393  3.8290299e+01 5.28e-07 3.03e-03  -6.0 1.10e-03    -  1.00e+00 1.00e+00h  1
 394  3.8295790e+01 5.27e-07 3.01e-03  -6.0 1.09e-03    -  1.00e+00 1.00e+00h  1
 395  3.8301259e+01 5.26e-07 2.99e-03  -6.0 1.09e-03    -  1.00e+00 1.00e+00h  1
 396  3.8306707e+01 5.24e-07 2.97e-03  -6.0 1.09e-03    -  1.00e+00 1.00e+00h  1
 397  3.8312134e+01 5.23e-07 2.95e-03  -6.0 1.08e-03    -  1.00e+00 1.00e+00h  1
 398  3.8317539e+01 5.22e-07 2.92e-03  -6.0 1.08e-03    -  1.00e+00 1.00e+00h  1
 399  3.8322924e+01 5.21e-07 2.90e-03  -6.0 1.08e-03    -  1.00e+00 1.00e+00h  1
iter    objective    inf_pr   inf_du lg(mu)  ||d||  lg(rg) alpha_du alpha_pr  ls
 400  3.8328288e+01 5.19e-07 2.88e-03  -6.0 1.07e-03    -  1.00e+00 1.00e+00h  1
 401  3.8333632e+01 5.18e-07 2.86e-03  -6.0 1.07e-03    -  1.00e+00 1.00e+00h  1
 402  3.8338956e+01 5.17e-07 2.84e-03  -6.0 1.06e-03    -  1.00e+00 1.00e+00h  1
 403  3.8344259e+01 5.16e-07 2.82e-03  -6.0 1.06e-03    -  1.00e+00 1.00e+00h  1
 404  3.8349542e+01 5.15e-07 2.80e-03  -6.0 1.06e-03    -  1.00e+00 1.00e+00h  1
 405  3.8354805e+01 5.13e-07 2.78e-03  -6.0 1.05e-03    -  1.00e+00 1.00e+00h  1
 406  3.8360049e+01 5.12e-07 2.76e-03  -6.0 1.05e-03    -  1.00e+00 1.00e+00h  1
 407  3.8365273e+01 5.11e-07 2.74e-03  -6.0 1.05e-03    -  1.00e+00 1.00e+00h  1
 408  3.8370477e+01 5.10e-07 2.72e-03  -6.0 1.04e-03    -  1.00e+00 1.00e+00h  1
 409  3.8375662e+01 5.09e-07 2.70e-03  -6.0 1.04e-03    -  1.00e+00 1.00e+00h  1
iter    objective    inf_pr   inf_du lg(mu)  ||d||  lg(rg) alpha_du alpha_pr  ls
 410  3.8380828e+01 5.07e-07 2.69e-03  -6.0 1.03e-03    -  1.00e+00 1.00e+00h  1
 411  3.8385975e+01 5.06e-07 2.67e-03  -6.0 1.03e-03    -  1.00e+00 1.00e+00h  1
 412  3.8391103e+01 5.05e-07 2.65e-03  -6.0 1.03e-03    -  1.00e+00 1.00e+00h  1
 413  3.8396213e+01 5.04e-07 2.63e-03  -6.0 1.02e-03    -  1.00e+00 1.00e+00h  1
 414  3.8401304e+01 5.03e-07 2.61e-03  -6.0 1.02e-03    -  1.00e+00 1.00e+00h  1
 415  3.8406376e+01 5.02e-07 2.59e-03  -6.0 1.02e-03    -  1.00e+00 1.00e+00h  1
 416  3.8411430e+01 5.00e-07 2.58e-03  -6.0 1.01e-03    -  1.00e+00 1.00e+00h  1
 417  3.8416466e+01 4.99e-07 2.56e-03  -6.0 1.01e-03    -  1.00e+00 1.00e+00h  1
 418  3.8421483e+01 4.98e-07 2.54e-03  -6.0 1.01e-03    -  1.00e+00 1.00e+00h  1

Number of Iterations....: 418

                                   (scaled)                 (unscaled)
Objective...............:   3.8421483280000416e+01    3.8421483280000416e+01
Dual infeasibility......:   2.5422678063478088e-03    2.5422678063478088e-03
Constraint violation....:   4.9819053898891852e-07    4.9819053898891852e-07
Variable bound violation:   0.0000000000000000e+00    0.0000000000000000e+00
Complementarity.........:   9.0913449730345146e-07    9.0913449730345146e-07
Overall NLP error.......:   9.9281334638294119e-06    2.5422678063478088e-03


Number of objective function evaluations             = 464
Number of objective gradient evaluations             = 410
Number of equality constraint evaluations            = 464
Number of inequality constraint evaluations          = 464
Number of equality constraint Jacobian evaluations   = 423
Number of inequality constraint Jacobian evaluations = 423
Number of Lagrangian Hessian evaluations             = 418
Total seconds in IPOPT                               = 0.469

EXIT: Optimal Solution Found.
